5 5
7 4 1 10 2 6 3 12 4 14 1 4 12 3 1 17 5 11 3 6 4 3 4 5 7 4 8 1 8 5 5 20 2 12 4 11 3 13 1 14 4 3 16 2 15 4 12 1 13 3 3 4 1 9 2 17
7 3 4 2 2 18 5 12 5 4 4 5 13 3 6 1 6 2 8 2 2 11 5 13 1 4 3 3 4 13 2 11 1 15 4 4 12 1 17 3 12 2 9 3 2 12 3 9 5 18
5 5 2 13 4 2 3 20 5 5 1 12 5 2 11 1 12 5 20 3 5 4 9 2 3 13 5 15 1 3 17 2 5 5 1 4
5 4 2 8 3 3 4 14 1 9 1 2 15 2 3 4 1 10 5 4 12 2 12 3 18 5 4 1 17 1 2 8
6 4 2 8 5 3 4 9 3 6 2 3 12 4 17 2 3 11 2 9 4 3 13 5 3 1 18 2 16 5 1 20 2 13 4 11 3 15 5 19 1 3 19